p cnf 49 171
2 9 16 23 0
4 5 6 11 18 0
5 4 6 12 19 26 33 0
6 5 4 13 0
8 9 15 22 0
9 8 16 23 2 0
11 12 13 14 18 4 0
12 11 13 14 19 26 33 5 0
13 12 11 14 6 0
14 13 12 11 0
15 16 17 18 19 22 8 0
16 15 17 18 19 23 9 2 0
17 16 15 18 19 24 31 38 45 0
18 17 16 15 19 11 4 0
19 18 17 16 15 26 33 12 5 0
22 23 24 15 8 0
23 22 24 16 9 2 0
24 23 22 31 38 45 17 0
26 27 28 33 19 12 5 0
27 26 28 34 41 48 0
28 27 26 35 42 0
31 32 33 34 35 38 45 24 17 0
32 31 33 34 35 39 46 0
33 32 31 34 35 26 19 12 5 0
34 33 32 31 35 41 48 27 0
35 34 33 32 31 42 28 0
36 37 38 39 0
37 36 38 39 44 0
38 37 36 39 45 31 24 17 0
39 38 37 36 46 32 0
41 42 48 34 27 0
42 41 35 28 0
44 45 46 37 0
45 44 46 38 31 24 17 0
46 45 44 39 32 0
48 41 34 27 0
-2 -9 0
-2 -16 0
-2 -23 0
-4 -5 0
-4 -6 0
-4 -11 0
-4 -18 0
-5 -6 0
-5 -12 0
-5 -19 0
-5 -26 0
-5 -33 0
-6 -13 0
-8 -9 0
-8 -15 0
-8 -22 0
-9 -16 0
-9 -23 0
-11 -12 0
-11 -13 0
-11 -14 0
-11 -18 0
-12 -13 0
-12 -14 0
-12 -19 0
-12 -26 0
-12 -33 0
-13 -14 0
-15 -16 0
-15 -17 0
-15 -18 0
-15 -19 0
-15 -22 0
-16 -17 0
-16 -18 0
-16 -19 0
-16 -23 0
-17 -18 0
-17 -19 0
-17 -24 0
-17 -31 0
-17 -38 0
-17 -45 0
-18 -19 0
-19 -26 0
-19 -33 0
-22 -23 0
-22 -24 0
-23 -24 0
-24 -31 0
-24 -38 0
-24 -45 0
-26 -27 0
-26 -28 0
-26 -33 0
-27 -28 0
-27 -34 0
-27 -41 0
-27 -48 0
-28 -35 0
-28 -42 0
-31 -32 0
-31 -33 0
-31 -34 0
-31 -35 0
-31 -38 0
-31 -45 0
-32 -33 0
-32 -34 0
-32 -35 0
-32 -39 0
-32 -46 0
-33 -34 0
-33 -35 0
-34 -35 0
-34 -41 0
-34 -48 0
-35 -42 0
-36 -37 0
-36 -38 0
-36 -39 0
-37 -38 0
-37 -39 0
-37 -44 0
-38 -39 0
-38 -45 0
-39 -46 0
-41 -42 0
-41 -48 0
-44 -45 0
-44 -46 0
-45 -46 0
-8 -2 0
8 2 0
2 0
4 0
17 9 11 0
-17 -9 0
-17 -11 0
-9 -11 0
-13 0
-27 0
-19 0
18 32 24 26 0
-18 -32 0
-18 -24 0
-18 -26 0
-32 -24 0
-32 -26 0
-24 -26 0
23 37 31 0
-23 -37 0
-23 -31 0
-37 -31 0
33 39 41 0
-33 -39 0
-33 -41 0
-39 -41 0
-46 -48 0
46 48 0
-42 0
-48 0
-1 0
-3 0
-7 0
-10 0
-20 0
-21 0
-25 0
-29 0
-30 0
-40 0
-43 0
-47 0
-49 0